h=10;
w=10;
b = [|3, 3, 2, 2, 3, 2, 2, 3, 5, -1|5, 6, -1, 4, 5, 4, -1, 5, 7, 5|5, 7, -1, 7, 7, 6, -1, 5, 6, 4|5, 8, -1, 6, 6, 6, 6, -1, 4, 2|3, 5, 5, 4, 4, 5, 6, 4, 3, -1|2, -1, 3, -1, -1, 4, 6, -1, 3, 1|2, 4, 2, 2, -1, 4, 6, 5, 3, 1|2, 4, 3, 3, 4, -1, 6, 5, 4, 3|2, -1, 3, 3, 3, 3, 5, 4, -1, 2|-1, -1, -1, 2, 2, -1, 3, 3, 3, -1|]